c Reduced graph for queen9_9gb generated by Cyril Grelier
p edge 81 1056
e 1 3
e 1 5
e 1 7
e 1 11
e 1 16
e 1 18
e 1 19
e 1 22
e 1 23
e 1 28
e 1 31
e 1 32
e 1 33
e 1 36
e 1 43
e 1 48
e 1 49
e 1 53
e 1 54
e 1 55
e 1 62
e 1 63
e 1 66
e 1 67
e 1 69
e 1 71
e 1 72
e 1 75
e 1 76
e 1 77
e 2 3
e 2 4
e 2 6
e 2 11
e 2 12
e 2 14
e 2 15
e 2 16
e 2 20
e 2 21
e 2 23
e 2 31
e 2 35
e 2 44
e 2 49
e 2 51
e 2 52
e 2 53
e 2 55
e 2 57
e 2 59
e 2 60
e 2 63
e 2 64
e 2 68
e 2 74
e 2 78
e 2 80
e 3 5
e 3 9
e 3 11
e 3 14
e 3 16
e 3 18
e 3 19
e 3 21
e 3 26
e 3 36
e 3 38
e 3 40
e 3 44
e 3 46
e 3 52
e 3 62
e 3 63
e 3 64
e 3 65
e 3 67
e 3 68
e 3 70
e 3 71
e 3 77
e 4 6
e 4 15
e 4 18
e 4 23
e 4 24
e 4 26
e 4 27
e 4 31
e 4 35
e 4 37
e 4 46
e 4 47
e 4 48
e 4 51
e 4 52
e 4 55
e 4 57
e 4 59
e 4 60
e 4 62
e 4 64
e 4 68
e 4 72
e 4 75
e 4 81
e 5 7
e 5 8
e 5 9
e 5 10
e 5 12
e 5 16
e 5 18
e 5 19
e 5 23
e 5 25
e 5 27
e 5 31
e 5 33
e 5 36
e 5 40
e 5 43
e 5 44
e 5 45
e 5 47
e 5 50
e 5 62
e 5 64
e 5 66
e 5 73
e 5 74
e 5 78
e 5 79
e 5 81
e 6 7
e 6 8
e 6 12
e 6 13
e 6 15
e 6 19
e 6 23
e 6 27
e 6 29
e 6 31
e 6 34
e 6 35
e 6 36
e 6 38
e 6 39
e 6 42
e 6 43
e 6 44
e 6 49
e 6 51
e 6 54
e 6 56
e 6 59
e 6 60
e 6 63
e 6 65
e 6 68
e 6 72
e 7 8
e 7 11
e 7 12
e 7 19
e 7 24
e 7 26
e 7 31
e 7 32
e 7 39
e 7 40
e 7 42
e 7 43
e 7 49
e 7 50
e 7 53
e 7 56
e 7 58
e 7 59
e 7 63
e 7 64
e 7 66
e 7 70
e 7 71
e 7 74
e 7 75
e 7 76
e 7 81
e 8 9
e 8 10
e 8 14
e 8 17
e 8 19
e 8 20
e 8 23
e 8 25
e 8 27
e 8 30
e 8 31
e 8 33
e 8 37
e 8 39
e 8 41
e 8 42
e 8 45
e 8 46
e 8 49
e 8 52
e 8 54
e 8 56
e 8 59
e 8 60
e 8 63
e 8 69
e 8 74
e 9 10
e 9 15
e 9 23
e 9 25
e 9 27
e 9 32
e 9 33
e 9 38
e 9 40
e 9 44
e 9 46
e 9 54
e 9 57
e 9 59
e 9 61
e 9 67
e 9 68
e 9 69
e 9 70
e 9 71
e 9 74
e 9 76
e 9 79
e 10 11
e 10 17
e 10 18
e 10 21
e 10 22
e 10 23
e 10 25
e 10 27
e 10 28
e 10 33
e 10 36
e 10 47
e 10 50
e 10 51
e 10 56
e 10 61
e 10 65
e 10 67
e 10 71
e 10 74
e 10 76
e 11 14
e 11 21
e 11 22
e 11 23
e 11 24
e 11 26
e 11 36
e 11 43
e 11 44
e 11 47
e 11 52
e 11 54
e 11 56
e 11 58
e 11 63
e 11 64
e 11 66
e 11 69
e 11 70
e 11 71
e 11 72
e 11 74
e 11 77
e 12 16
e 12 20
e 12 25
e 12 29
e 12 36
e 12 38
e 12 40
e 12 43
e 12 47
e 12 49
e 12 50
e 12 54
e 12 55
e 12 57
e 12 60
e 12 63
e 12 64
e 12 65
e 12 66
e 12 74
e 12 75
e 12 77
e 12 80
e 12 81
e 13 15
e 13 19
e 13 20
e 13 24
e 13 25
e 13 27
e 13 29
e 13 30
e 13 34
e 13 35
e 13 37
e 13 44
e 13 45
e 13 49
e 13 52
e 13 53
e 13 58
e 13 61
e 13 66
e 13 67
e 13 72
e 13 80
e 13 81
e 14 15
e 14 17
e 14 20
e 14 21
e 14 26
e 14 30
e 14 31
e 14 32
e 14 33
e 14 34
e 14 36
e 14 37
e 14 38
e 14 41
e 14 44
e 14 46
e 14 50
e 14 52
e 14 54
e 14 63
e 14 64
e 14 72
e 14 76
e 14 78
e 15 19
e 15 20
e 15 23
e 15 24
e 15 26
e 15 31
e 15 32
e 15 33
e 15 34
e 15 35
e 15 36
e 15 41
e 15 45
e 15 50
e 15 51
e 15 61
e 15 66
e 15 67
e 15 68
e 15 69
e 15 76
e 15 79
e 16 18
e 16 19
e 16 20
e 16 24
e 16 25
e 16 28
e 16 36
e 16 37
e 16 39
e 16 42
e 16 49
e 16 50
e 16 55
e 16 57
e 16 58
e 16 62
e 16 68
e 16 69
e 16 73
e 16 74
e 16 80
e 17 18
e 17 20
e 17 21
e 17 28
e 17 30
e 17 31
e 17 34
e 17 35
e 17 37
e 17 46
e 17 48
e 17 51
e 17 54
e 17 56
e 17 57
e 17 61
e 17 65
e 17 70
e 17 76
e 17 77
e 17 78
e 18 19
e 18 21
e 18 26
e 18 28
e 18 36
e 18 46
e 18 47
e 18 51
e 18 55
e 18 59
e 18 61
e 18 62
e 18 65
e 18 70
e 18 72
e 18 76
e 18 81
e 19 20
e 19 22
e 19 24
e 19 29
e 19 36
e 19 39
e 19 42
e 19 45
e 19 56
e 19 59
e 19 61
e 19 62
e 19 63
e 19 66
e 19 67
e 19 73
e 19 74
e 19 75
e 20 24
e 20 27
e 20 30
e 20 31
e 20 37
e 20 39
e 20 45
e 20 46
e 20 49
e 20 53
e 20 54
e 20 55
e 20 57
e 20 61
e 20 66
e 20 67
e 20 74
e 20 79
e 20 80
e 21 23
e 21 28
e 21 32
e 21 34
e 21 38
e 21 39
e 21 44
e 21 45
e 21 46
e 21 51
e 21 52
e 21 61
e 21 63
e 21 64
e 21 65
e 21 76
e 21 80
e 22 23
e 22 29
e 22 30
e 22 40
e 22 41
e 22 42
e 22 50
e 22 51
e 22 54
e 22 62
e 22 66
e 22 67
e 22 69
e 22 72
e 22 73
e 22 74
e 22 75
e 22 77
e 22 79
e 22 80
e 23 25
e 23 27
e 23 31
e 23 32
e 23 33
e 23 35
e 23 38
e 23 39
e 23 45
e 23 51
e 23 54
e 23 66
e 23 68
e 23 69
e 23 72
e 23 74
e 23 77
e 23 80
e 24 25
e 24 26
e 24 27
e 24 37
e 24 42
e 24 43
e 24 45
e 24 48
e 24 58
e 24 60
e 24 61
e 24 62
e 24 64
e 24 66
e 24 67
e 24 70
e 24 74
e 24 75
e 25 27
e 25 29
e 25 30
e 25 33
e 25 35
e 25 42
e 25 47
e 25 52
e 25 53
e 25 58
e 25 63
e 25 74
e 25 75
e 25 77
e 25 81
e 26 32
e 26 33
e 26 34
e 26 36
e 26 41
e 26 43
e 26 46
e 26 47
e 26 50
e 26 55
e 26 58
e 26 59
e 26 65
e 26 70
e 26 72
e 26 74
e 26 77
e 26 81
e 27 33
e 27 34
e 27 37
e 27 39
e 27 44
e 27 48
e 27 49
e 27 53
e 27 60
e 27 62
e 27 64
e 27 72
e 27 74
e 27 75
e 27 79
e 28 33
e 28 37
e 28 39
e 28 40
e 28 43
e 28 48
e 28 50
e 28 51
e 28 55
e 28 58
e 28 61
e 28 63
e 28 65
e 28 67
e 28 68
e 28 69
e 28 73
e 28 76
e 29 30
e 29 35
e 29 36
e 29 38
e 29 43
e 29 52
e 29 53
e 29 54
e 29 55
e 29 56
e 29 58
e 29 60
e 29 64
e 29 65
e 29 73
e 29 74
e 29 75
e 29 81
e 30 31
e 30 35
e 30 37
e 30 40
e 30 41
e 30 42
e 30 46
e 30 51
e 30 52
e 30 53
e 30 54
e 30 58
e 30 62
e 30 79
e 30 80
e 30 81
e 31 32
e 31 35
e 31 37
e 31 43
e 31 44
e 31 45
e 31 46
e 31 47
e 31 49
e 31 51
e 31 53
e 31 54
e 31 68
e 31 71
e 31 73
e 31 75
e 31 76
e 31 78
e 31 79
e 32 33
e 32 34
e 32 36
e 32 38
e 32 39
e 32 41
e 32 44
e 32 45
e 32 49
e 32 50
e 32 53
e 32 54
e 32 57
e 32 59
e 32 61
e 32 71
e 32 75
e 32 76
e 32 80
e 33 34
e 33 36
e 33 41
e 33 42
e 33 43
e 33 48
e 33 50
e 33 55
e 33 63
e 33 65
e 33 66
e 33 67
e 33 71
e 33 73
e 33 74
e 34 35
e 34 36
e 34 41
e 34 44
e 34 46
e 34 48
e 34 49
e 34 50
e 34 56
e 34 57
e 34 70
e 34 72
e 34 77
e 34 78
e 35 48
e 35 51
e 35 52
e 35 53
e 35 56
e 35 57
e 35 58
e 35 68
e 35 70
e 35 77
e 35 78
e 35 81
e 36 38
e 36 41
e 36 43
e 36 47
e 36 50
e 36 54
e 36 56
e 36 60
e 36 62
e 36 65
e 36 71
e 37 39
e 37 46
e 37 48
e 37 50
e 37 54
e 37 58
e 37 60
e 37 62
e 37 64
e 37 68
e 37 69
e 37 73
e 37 75
e 37 80
e 38 39
e 38 40
e 38 43
e 38 45
e 38 46
e 38 54
e 38 60
e 38 65
e 38 67
e 38 68
e 38 70
e 38 71
e 38 72
e 38 76
e 38 78
e 38 80
e 39 42
e 39 45
e 39 50
e 39 53
e 39 56
e 39 58
e 39 59
e 39 63
e 39 68
e 39 69
e 39 73
e 39 79
e 39 80
e 40 41
e 40 42
e 40 46
e 40 50
e 40 51
e 40 62
e 40 64
e 40 66
e 40 67
e 40 68
e 40 70
e 40 71
e 40 79
e 40 80
e 40 81
e 41 42
e 41 45
e 41 49
e 41 50
e 41 51
e 41 52
e 41 60
e 41 61
e 41 62
e 41 68
e 41 69
e 41 79
e 41 80
e 42 51
e 42 56
e 42 59
e 42 62
e 42 63
e 42 65
e 42 66
e 42 71
e 42 73
e 42 79
e 42 80
e 43 44
e 43 45
e 43 47
e 43 48
e 43 54
e 43 55
e 43 58
e 43 60
e 43 63
e 43 65
e 43 67
e 43 70
e 43 73
e 43 74
e 43 78
e 43 79
e 44 45
e 44 47
e 44 49
e 44 52
e 44 54
e 44 57
e 44 59
e 44 61
e 44 63
e 44 64
e 44 72
e 44 73
e 44 78
e 44 79
e 45 47
e 45 49
e 45 52
e 45 60
e 45 61
e 45 66
e 45 67
e 45 69
e 45 73
e 45 78
e 45 79
e 45 80
e 46 47
e 46 54
e 46 55
e 46 59
e 46 67
e 46 68
e 46 70
e 46 71
e 46 72
e 46 81
e 47 55
e 47 56
e 47 59
e 47 63
e 47 71
e 47 72
e 47 73
e 47 75
e 47 77
e 47 78
e 47 79
e 47 81
e 48 55
e 48 56
e 48 57
e 48 60
e 48 62
e 48 63
e 48 64
e 48 67
e 48 70
e 48 75
e 48 77
e 48 78
e 48 81
e 49 52
e 49 53
e 49 55
e 49 57
e 49 60
e 49 69
e 49 71
e 49 72
e 49 74
e 49 75
e 49 76
e 49 80
e 50 58
e 50 64
e 50 66
e 50 67
e 50 68
e 50 69
e 50 73
e 50 81
e 51 61
e 51 62
e 51 65
e 51 68
e 51 76
e 51 79
e 51 80
e 52 53
e 52 57
e 52 58
e 52 60
e 52 63
e 52 64
e 52 69
e 52 81
e 53 58
e 53 59
e 53 60
e 53 71
e 53 75
e 53 76
e 53 78
e 53 79
e 53 81
e 54 57
e 54 59
e 54 60
e 54 61
e 54 65
e 54 66
e 54 69
e 54 72
e 54 77
e 55 56
e 55 57
e 55 59
e 55 63
e 55 64
e 55 67
e 55 72
e 55 74
e 55 80
e 55 81
e 56 57
e 56 59
e 56 63
e 56 64
e 56 70
e 56 71
e 56 77
e 56 78
e 57 59
e 57 61
e 57 70
e 57 74
e 57 77
e 57 78
e 57 80
e 58 62
e 58 68
e 58 69
e 58 70
e 58 73
e 58 74
e 58 81
e 59 60
e 59 61
e 59 63
e 59 72
e 59 78
e 59 81
e 60 62
e 60 64
e 60 65
e 60 69
e 60 75
e 60 78
e 61 65
e 61 66
e 61 67
e 61 68
e 61 76
e 62 64
e 62 75
e 62 79
e 62 80
e 63 64
e 63 67
e 63 75
e 63 77
e 64 66
e 64 75
e 64 81
e 65 66
e 65 71
e 65 73
e 65 76
e 65 77
e 66 67
e 66 69
e 66 71
e 66 72
e 66 73
e 66 77
e 66 81
e 67 68
e 67 70
e 67 71
e 68 69
e 68 70
e 68 71
e 68 73
e 69 72
e 69 73
e 69 76
e 69 77
e 69 79
e 70 71
e 70 74
e 70 77
e 70 78
e 71 73
e 71 75
e 71 76
e 72 76
e 72 77
e 72 78
e 72 81
e 73 74
e 73 75
e 73 78
e 73 79
e 74 75
e 74 80
e 75 76
e 75 77
e 76 78
e 76 79
e 77 78
e 78 79
e 79 80
